883880
1,48,37,80,68,99,36,72,55,44,91,53,8,89,85,5,64,3,2,27,46,28,34,71,90,59,24,43,19,12,17,26,94,40,29,79,51,78,25,73,22,84,92,39,14,52,65,54,98,23,11,67,61,58,82,16,15,83,35,97,42,50,88,38,76,87,45,86,81,7,4,66,95,47,57,33,9,20,21,96,30,77,41,6,75,69,18,56,10,49,93,63,13,62,31,60,32,74,70,1